
Gurobi 8.0.1 (linux64, Python) logging started Fri Jul 13 14:31:40 2018

Academic license - for non-commercial use only
Optimize a model with 2 rows, 3 columns and 5 nonzeros
Model has 5 quadratic objective terms
Coefficient statistics:
  Matrix range     [1e+00, 3e+00]
  Objective range  [2e+00, 2e+00]
  QObjective range [2e+00, 2e+00]
  Bounds range     [1e+00, 1e+00]
  RHS range        [1e+00, 4e+00]
Presolve time: 0.01s
Presolved: 2 rows, 3 columns, 5 nonzeros
Presolved model has 5 quadratic objective terms
Ordering time: 0.00s

Barrier statistics:
 Free vars  : 2
 AA' NZ     : 6.000e+00
 Factor NZ  : 1.000e+01
 Factor Ops : 3.000e+01 (less than 1 second per iteration)
 Threads    : 1

                  Objective                Residual
Iter       Primal          Dual         Primal    Dual     Compl     Time
   0   1.69015022e+05 -1.71012100e+05  1.50e+03 3.33e+02  1.00e+06     0s
   1   3.60255402e+04 -3.91306233e+04  2.28e+02 3.82e+01  1.20e+05     0s
   2   4.14685168e+00 -4.40925173e+03  1.80e+00 4.00e-01  1.83e+03     0s
   3   2.81937163e+00 -1.92736174e+03  1.80e-06 4.00e-07  2.41e+02     0s
   4   2.81628339e+00 -1.81287557e-01  8.60e-10 1.90e-10  3.75e-01     0s
   5   2.26977145e+00  2.06670895e+00  6.89e-12 1.53e-12  2.54e-02     0s
   6   2.11498124e+00  2.11029644e+00  2.22e-16 5.55e-16  5.86e-04     0s
   7   2.11111498e+00  2.11111030e+00  2.22e-16 2.23e-16  5.85e-07     0s
   8   2.11111111e+00  2.11111111e+00  2.22e-16 0.00e+00  5.86e-10     0s

Barrier solved model in 8 iterations and 0.03 seconds
Optimal objective 2.11111111e+00

Optimize a model with 2 rows, 6 columns and 5 nonzeros
Model has 5 quadratic objective terms
Variable types: 5 continuous, 1 integer (1 binary)
Coefficient statistics:
  Matrix range     [1e+00, 3e+00]
  Objective range  [2e+00, 2e+00]
  QObjective range [2e+00, 2e+00]
  Bounds range     [1e+00, 1e+00]
  RHS range        [1e+00, 4e+00]
Found heuristic solution: objective 7.0000000
Presolve removed 0 rows and 3 columns
Presolve time: 0.00s
Presolved: 2 rows, 3 columns, 5 nonzeros
Presolved model has 5 quadratic objective terms
Variable types: 3 continuous, 0 integer (0 binary)
Presolve time: 0.01s
Presolved: 2 rows, 3 columns, 5 nonzeros
Presolved model has 5 quadratic objective terms
Root barrier log...

Ordering time: 0.00s

Barrier statistics:
 Free vars  : 2
 AA' NZ     : 6.000e+00
 Factor NZ  : 1.000e+01
 Factor Ops : 3.000e+01 (less than 1 second per iteration)
 Threads    : 1

                  Objective                Residual
Iter       Primal          Dual         Primal    Dual     Compl     Time
   0   1.69102168e+05 -1.70210755e+05  1.50e+03 3.33e+02  1.00e+06     0s
   1   3.60379787e+04 -3.85365139e+04  2.28e+02 3.82e+01  1.20e+05     0s
   2   4.36102695e+00 -3.85978252e+03  1.80e+00 4.00e-01  1.76e+03     0s
   3   2.88210178e+00 -1.92173715e+03  1.80e-06 4.00e-07  2.41e+02     0s
   4   2.87905607e+00 -3.96735201e-01  1.13e-09 2.52e-10  4.09e-01     0s
   5   2.27707197e+00  2.03118160e+00  5.19e-12 1.15e-12  3.07e-02     0s
   6   2.11416625e+00  2.10936737e+00  8.33e-17 1.11e-16  6.00e-04     0s
   7   2.11111416e+00  2.11110936e+00  1.39e-16 2.22e-16  6.00e-07     0s
   8   2.11111111e+00  2.11111111e+00  8.33e-17 8.21e-17  6.01e-10     0s

Barrier solved model in 8 iterations and 0.01 seconds
Optimal objective 2.11111111e+00


Root relaxation: objective 2.111111e+00, 0 iterations, 0.01 seconds

    Nodes    |    Current Node    |     Objective Bounds      |     Work
 Expl Unexpl |  Obj  Depth IntInf | Incumbent    BestBd   Gap | It/Node Time

*    0     0               0       2.1111111    2.11111  0.00%     -    0s

Explored 0 nodes (0 simplex iterations) in 0.02 seconds
Thread count was 8 (of 8 available processors)

Solution count 2: 2.11111 7 

Optimal solution found (tolerance 1.00e-04)
Best objective 2.111111114168e+00, best bound 2.111111114168e+00, gap 0.0000%
Optimize a model with 2 rows, 6 columns and 5 nonzeros
Model has 5 quadratic objective terms
Variable types: 3 continuous, 3 integer (0 binary)
Coefficient statistics:
  Matrix range     [1e+00, 3e+00]
  Objective range  [2e+00, 2e+00]
  QObjective range [2e+00, 2e+00]
  Bounds range     [1e+00, 1e+00]
  RHS range        [1e+00, 4e+00]

Loaded MIP start with objective 2.11111

Presolve removed 0 rows and 3 columns
Presolve time: 0.00s
Presolved: 2 rows, 3 columns, 5 nonzeros
Presolved model has 5 quadratic objective terms
Variable types: 3 continuous, 0 integer (0 binary)
Presolve time: 0.01s
Presolved: 2 rows, 3 columns, 5 nonzeros
Presolved model has 5 quadratic objective terms
Root barrier log...

Ordering time: 0.00s

Barrier statistics:
 Free vars  : 2
 AA' NZ     : 6.000e+00
 Factor NZ  : 1.000e+01
 Factor Ops : 3.000e+01 (less than 1 second per iteration)
 Threads    : 1

                  Objective                Residual
Iter       Primal          Dual         Primal    Dual     Compl     Time
   0   1.69102168e+05 -1.70210755e+05  1.50e+03 3.33e+02  1.00e+06     0s
   1   3.60379787e+04 -3.85365139e+04  2.28e+02 3.82e+01  1.20e+05     0s
   2   4.36102695e+00 -3.85978252e+03  1.80e+00 4.00e-01  1.76e+03     0s
   3   2.88210178e+00 -1.92173715e+03  1.80e-06 4.00e-07  2.41e+02     0s
   4   2.87905607e+00 -3.96735201e-01  1.13e-09 2.52e-10  4.09e-01     0s
   5   2.27707197e+00  2.03118160e+00  5.19e-12 1.15e-12  3.07e-02     0s
   6   2.11416625e+00  2.10936737e+00  8.33e-17 1.11e-16  6.00e-04     0s
   7   2.11111416e+00  2.11110936e+00  1.39e-16 2.22e-16  6.00e-07     0s
   8   2.11111111e+00  2.11111111e+00  8.33e-17 8.21e-17  6.01e-10     0s

Barrier solved model in 8 iterations and 0.01 seconds
Optimal objective 2.11111111e+00


Root relaxation: cutoff, 0 iterations, 0.01 seconds

    Nodes    |    Current Node    |     Objective Bounds      |     Work
 Expl Unexpl |  Obj  Depth IntInf | Incumbent    BestBd   Gap | It/Node Time

     0     0     cutoff    0         2.11111    2.11111  0.00%     -    0s

Explored 0 nodes (0 simplex iterations) in 0.02 seconds
Thread count was 8 (of 8 available processors)

Solution count 1: 2.11111 

Optimal solution found (tolerance 1.00e-04)
Best objective 2.111111111111e+00, best bound 2.111111111111e+00, gap 0.0000%

Gurobi 8.0.1 (linux64, Python) logging started Fri Jul 13 15:01:40 2018

Academic license - for non-commercial use only
Optimize a model with 2 rows, 3 columns and 5 nonzeros
Model has 5 quadratic objective terms
Variable types: 2 continuous, 1 integer (1 binary)
Coefficient statistics:
  Matrix range     [1e+00, 3e+00]
  Objective range  [2e+00, 2e+00]
  QObjective range [2e+00, 2e+00]
  Bounds range     [1e+00, 1e+00]
  RHS range        [1e+00, 4e+00]
Found heuristic solution: objective 7.0000000
Modified 1 Q diagonals
Presolve time: 0.00s
Presolved: 2 rows, 3 columns, 5 nonzeros
Presolved model has 5 quadratic objective terms
Variable types: 2 continuous, 1 integer (1 binary)

Root relaxation: objective 2.111111e+00, 6 iterations, 0.00 seconds

    Nodes    |    Current Node    |     Objective Bounds      |     Work
 Expl Unexpl |  Obj  Depth IntInf | Incumbent    BestBd   Gap | It/Node Time

*    0     0               0       2.1111111    2.11111  0.00%     -    0s

Explored 0 nodes (6 simplex iterations) in 0.03 seconds
Thread count was 8 (of 8 available processors)

Solution count 2: 2.11111 7 

Optimal solution found (tolerance 1.00e-04)
Best objective 2.111111111111e+00, best bound 2.111111111111e+00, gap 0.0000%
Optimize a model with 2 rows, 3 columns and 5 nonzeros
Model has 5 quadratic objective terms
Variable types: 0 continuous, 3 integer (0 binary)
Coefficient statistics:
  Matrix range     [1e+00, 3e+00]
  Objective range  [2e+00, 2e+00]
  QObjective range [2e+00, 2e+00]
  Bounds range     [1e+00, 1e+00]
  RHS range        [1e+00, 4e+00]

Loaded MIP start with objective 3

Presolve removed 1 rows and 1 columns
Presolve time: 0.00s
Presolved: 2 rows, 3 columns, 5 nonzeros
Variable types: 0 continuous, 3 integer (3 binary)

Root relaxation: infeasible, 0 iterations, 0.00 seconds

Explored 0 nodes (0 simplex iterations) in 0.01 seconds
Thread count was 8 (of 8 available processors)

Solution count 1: 3 

Optimal solution found (tolerance 1.00e-04)
Best objective 3.000000000000e+00, best bound 3.000000000000e+00, gap 0.0000%

Gurobi 8.0.1 (linux64, Python) logging started Fri Jul 13 15:01:56 2018

Academic license - for non-commercial use only
Optimize a model with 2 rows, 3 columns and 5 nonzeros
Model has 5 quadratic objective terms
Coefficient statistics:
  Matrix range     [1e+00, 3e+00]
  Objective range  [2e+00, 2e+00]
  QObjective range [2e+00, 2e+00]
  Bounds range     [1e+00, 1e+00]
  RHS range        [1e+00, 4e+00]
Presolve time: 0.01s
Presolved: 2 rows, 3 columns, 5 nonzeros
Presolved model has 5 quadratic objective terms
Ordering time: 0.00s

Barrier statistics:
 Free vars  : 2
 AA' NZ     : 6.000e+00
 Factor NZ  : 1.000e+01
 Factor Ops : 3.000e+01 (less than 1 second per iteration)
 Threads    : 1

                  Objective                Residual
Iter       Primal          Dual         Primal    Dual     Compl     Time
   0   1.69015022e+05 -1.71012100e+05  1.50e+03 3.33e+02  1.00e+06     0s
   1   3.60255402e+04 -3.91306233e+04  2.28e+02 3.82e+01  1.20e+05     0s
   2   4.14685168e+00 -4.40925173e+03  1.80e+00 4.00e-01  1.83e+03     0s
   3   2.81937163e+00 -1.92736174e+03  1.80e-06 4.00e-07  2.41e+02     0s
   4   2.81628339e+00 -1.81287557e-01  8.60e-10 1.90e-10  3.75e-01     0s
   5   2.26977145e+00  2.06670895e+00  6.89e-12 1.53e-12  2.54e-02     0s
   6   2.11498124e+00  2.11029644e+00  2.22e-16 5.55e-16  5.86e-04     0s
   7   2.11111498e+00  2.11111030e+00  2.22e-16 2.23e-16  5.85e-07     0s
   8   2.11111111e+00  2.11111111e+00  2.22e-16 0.00e+00  5.86e-10     0s

Barrier solved model in 8 iterations and 0.04 seconds
Optimal objective 2.11111111e+00

Optimize a model with 2 rows, 3 columns and 5 nonzeros
Model has 5 quadratic objective terms
Variable types: 0 continuous, 3 integer (0 binary)
Coefficient statistics:
  Matrix range     [1e+00, 3e+00]
  Objective range  [2e+00, 2e+00]
  QObjective range [2e+00, 2e+00]
  Bounds range     [1e+00, 1e+00]
  RHS range        [1e+00, 4e+00]
Found heuristic solution: objective 7.0000000
Presolve removed 1 rows and 1 columns
Presolve time: 0.00s
Presolved: 2 rows, 3 columns, 5 nonzeros
Variable types: 0 continuous, 3 integer (3 binary)

Root relaxation: objective 3.000000e+00, 1 iterations, 0.00 seconds

    Nodes    |    Current Node    |     Objective Bounds      |     Work
 Expl Unexpl |  Obj  Depth IntInf | Incumbent    BestBd   Gap | It/Node Time

*    0     0               0       3.0000000    3.00000  0.00%     -    0s

Explored 0 nodes (1 simplex iterations) in 0.03 seconds
Thread count was 8 (of 8 available processors)

Solution count 2: 3 7 

Optimal solution found (tolerance 1.00e-04)
Best objective 3.000000000000e+00, best bound 3.000000000000e+00, gap 0.0000%

Gurobi 8.0.1 (linux64, Python) logging started Fri Jul 13 21:04:43 2018

Academic license - for non-commercial use only

Gurobi 8.0.1 (linux64, Python) logging started Fri Jul 13 21:22:40 2018

Academic license - for non-commercial use only

Gurobi 8.0.1 (linux64, Python) logging started Fri Jul 13 21:34:50 2018

Academic license - for non-commercial use only

Gurobi 8.0.1 (linux64, Python) logging started Fri Jul 13 21:57:06 2018

Academic license - for non-commercial use only

Gurobi 8.0.1 (linux64, Python) logging started Fri Jul 13 22:01:11 2018

Academic license - for non-commercial use only

Gurobi 8.0.1 (linux64, Python) logging started Fri Jul 13 22:03:01 2018

Academic license - for non-commercial use only

Gurobi 8.0.1 (linux64, Python) logging started Fri Jul 13 22:06:23 2018

Academic license - for non-commercial use only

Gurobi 8.0.1 (linux64, Python) logging started Fri Jul 13 22:08:57 2018

Academic license - for non-commercial use only

Gurobi 8.0.1 (linux64, Python) logging started Fri Jul 13 22:09:42 2018

Academic license - for non-commercial use only

Gurobi 8.0.1 (linux64, Python) logging started Fri Jul 13 22:10:31 2018

Academic license - for non-commercial use only

Gurobi 8.0.1 (linux64, Python) logging started Fri Jul 13 22:13:45 2018

Academic license - for non-commercial use only

Gurobi 8.0.1 (linux64, Python) logging started Fri Jul 13 22:13:59 2018

Academic license - for non-commercial use only

Gurobi 8.0.1 (linux64, Python) logging started Fri Jul 13 22:14:08 2018

Academic license - for non-commercial use only

Gurobi 8.0.1 (linux64, Python) logging started Fri Jul 13 22:15:11 2018

Academic license - for non-commercial use only

Gurobi 8.0.1 (linux64, Python) logging started Fri Jul 13 22:23:35 2018

Academic license - for non-commercial use only

Gurobi 8.0.1 (linux64, Python) logging started Fri Jul 13 22:28:17 2018

Academic license - for non-commercial use only
Optimize a model with 2 rows, 3 columns and 5 nonzeros
Model has 5 quadratic objective terms
Coefficient statistics:
  Matrix range     [1e+00, 3e+00]
  Objective range  [2e+00, 2e+00]
  QObjective range [2e+00, 2e+00]
  Bounds range     [1e+00, 1e+00]
  RHS range        [1e+00, 4e+00]
Presolve time: 0.01s
Presolved: 2 rows, 3 columns, 5 nonzeros
Presolved model has 5 quadratic objective terms
Ordering time: 0.00s

Barrier statistics:
 Free vars  : 2
 AA' NZ     : 6.000e+00
 Factor NZ  : 1.000e+01
 Factor Ops : 3.000e+01 (less than 1 second per iteration)
 Threads    : 1

                  Objective                Residual
Iter       Primal          Dual         Primal    Dual     Compl     Time
   0   1.69015022e+05 -1.71012100e+05  1.50e+03 3.33e+02  1.00e+06     0s
   1   3.60255402e+04 -3.91306233e+04  2.28e+02 3.82e+01  1.20e+05     0s
   2   4.14685168e+00 -4.40925173e+03  1.80e+00 4.00e-01  1.83e+03     0s
   3   2.81937163e+00 -1.92736174e+03  1.80e-06 4.00e-07  2.41e+02     0s
   4   2.81628339e+00 -1.81287557e-01  8.60e-10 1.90e-10  3.75e-01     0s
   5   2.26977145e+00  2.06670895e+00  6.89e-12 1.53e-12  2.54e-02     0s
   6   2.11498124e+00  2.11029644e+00  2.22e-16 5.55e-16  5.86e-04     0s
   7   2.11111498e+00  2.11111030e+00  2.22e-16 2.23e-16  5.85e-07     0s
   8   2.11111111e+00  2.11111111e+00  2.22e-16 0.00e+00  5.86e-10     0s

Barrier solved model in 8 iterations and 0.03 seconds
Optimal objective 2.11111111e+00

Optimize a model with 2 rows, 3 columns and 5 nonzeros
Model has 5 quadratic objective terms
Variable types: 0 continuous, 3 integer (0 binary)
Coefficient statistics:
  Matrix range     [1e+00, 3e+00]
  Objective range  [2e+00, 2e+00]
  QObjective range [2e+00, 2e+00]
  Bounds range     [1e+00, 1e+00]
  RHS range        [1e+00, 4e+00]
Found heuristic solution: objective 7.0000000
Presolve removed 1 rows and 1 columns
Presolve time: 0.00s
Presolved: 2 rows, 3 columns, 5 nonzeros
Variable types: 0 continuous, 3 integer (3 binary)

Root relaxation: objective 3.000000e+00, 1 iterations, 0.00 seconds

    Nodes    |    Current Node    |     Objective Bounds      |     Work
 Expl Unexpl |  Obj  Depth IntInf | Incumbent    BestBd   Gap | It/Node Time

*    0     0               0       3.0000000    3.00000  0.00%     -    0s

Explored 0 nodes (1 simplex iterations) in 0.03 seconds
Thread count was 8 (of 8 available processors)

Solution count 2: 3 7 

Optimal solution found (tolerance 1.00e-04)
Best objective 3.000000000000e+00, best bound 3.000000000000e+00, gap 0.0000%

Gurobi 8.0.1 (linux64, Python) logging started Fri Jul 13 22:32:07 2018

Academic license - for non-commercial use only
Optimize a model with 2 rows, 3 columns and 5 nonzeros
Model has 5 quadratic objective terms
Coefficient statistics:
  Matrix range     [1e+00, 3e+00]
  Objective range  [2e+00, 2e+00]
  QObjective range [2e+00, 2e+00]
  Bounds range     [1e+00, 1e+00]
  RHS range        [1e+00, 4e+00]
Presolve time: 0.01s
Presolved: 2 rows, 3 columns, 5 nonzeros
Presolved model has 5 quadratic objective terms
Ordering time: 0.00s

Barrier statistics:
 Free vars  : 2
 AA' NZ     : 6.000e+00
 Factor NZ  : 1.000e+01
 Factor Ops : 3.000e+01 (less than 1 second per iteration)
 Threads    : 1

                  Objective                Residual
Iter       Primal          Dual         Primal    Dual     Compl     Time
   0   1.69015022e+05 -1.71012100e+05  1.50e+03 3.33e+02  1.00e+06     0s
   1   3.60255402e+04 -3.91306233e+04  2.28e+02 3.82e+01  1.20e+05     0s
   2   4.14685168e+00 -4.40925173e+03  1.80e+00 4.00e-01  1.83e+03     0s
   3   2.81937163e+00 -1.92736174e+03  1.80e-06 4.00e-07  2.41e+02     0s
   4   2.81628339e+00 -1.81287557e-01  8.60e-10 1.90e-10  3.75e-01     0s
   5   2.26977145e+00  2.06670895e+00  6.89e-12 1.53e-12  2.54e-02     0s
   6   2.11498124e+00  2.11029644e+00  2.22e-16 5.55e-16  5.86e-04     0s
   7   2.11111498e+00  2.11111030e+00  2.22e-16 2.23e-16  5.85e-07     0s
   8   2.11111111e+00  2.11111111e+00  2.22e-16 0.00e+00  5.86e-10     0s

Barrier solved model in 8 iterations and 0.03 seconds
Optimal objective 2.11111111e+00

Optimize a model with 2 rows, 3 columns and 5 nonzeros
Model has 5 quadratic objective terms
Variable types: 0 continuous, 3 integer (0 binary)
Coefficient statistics:
  Matrix range     [1e+00, 3e+00]
  Objective range  [2e+00, 2e+00]
  QObjective range [2e+00, 2e+00]
  Bounds range     [1e+00, 1e+00]
  RHS range        [1e+00, 4e+00]
Found heuristic solution: objective 7.0000000
Presolve removed 1 rows and 1 columns
Presolve time: 0.00s
Presolved: 2 rows, 3 columns, 5 nonzeros
Variable types: 0 continuous, 3 integer (3 binary)

Root relaxation: objective 3.000000e+00, 1 iterations, 0.00 seconds

    Nodes    |    Current Node    |     Objective Bounds      |     Work
 Expl Unexpl |  Obj  Depth IntInf | Incumbent    BestBd   Gap | It/Node Time

*    0     0               0       3.0000000    3.00000  0.00%     -    0s

Explored 0 nodes (1 simplex iterations) in 0.02 seconds
Thread count was 8 (of 8 available processors)

Solution count 2: 3 7 

Optimal solution found (tolerance 1.00e-04)
Best objective 3.000000000000e+00, best bound 3.000000000000e+00, gap 0.0000%
Optimize a model with 2 rows, 3 columns and 5 nonzeros
Model has 5 quadratic objective terms
Variable types: 0 continuous, 3 integer (0 binary)
Coefficient statistics:
  Matrix range     [1e+00, 3e+00]
  Objective range  [2e+00, 2e+00]
  QObjective range [2e+00, 2e+00]
  Bounds range     [1e+00, 1e+00]
  RHS range        [1e+00, 4e+00]
Presolved: 2 rows, 3 columns, 5 nonzeros

Continuing optimization...


Explored 0 nodes (1 simplex iterations) in 0.00 seconds
Thread count was 8 (of 8 available processors)

Solution count 2: 3 7 

Optimal solution found (tolerance 1.00e-04)
Best objective 3.000000000000e+00, best bound 3.000000000000e+00, gap 0.0000%

Gurobi 8.0.1 (linux64, Python) logging started Fri Jul 13 22:33:21 2018

Academic license - for non-commercial use only

Gurobi 8.0.1 (linux64, Python) logging started Fri Jul 13 22:37:52 2018

Academic license - for non-commercial use only

Gurobi 8.0.1 (linux64, Python) logging started Fri Jul 13 22:38:50 2018

Academic license - for non-commercial use only

Gurobi 8.0.1 (linux64, Python) logging started Fri Jul 13 22:39:17 2018

Academic license - for non-commercial use only

Gurobi 8.0.1 (linux64, Python) logging started Fri Jul 13 22:40:52 2018

Academic license - for non-commercial use only

Gurobi 8.0.1 (linux64, Python) logging started Fri Jul 13 22:41:06 2018

Academic license - for non-commercial use only

Gurobi 8.0.1 (linux64, Python) logging started Fri Jul 13 22:41:29 2018

Academic license - for non-commercial use only

Gurobi 8.0.1 (linux64, Python) logging started Fri Jul 13 22:43:37 2018

Academic license - for non-commercial use only

Gurobi 8.0.1 (linux64, Python) logging started Fri Jul 13 22:43:54 2018

Academic license - for non-commercial use only

Gurobi 8.0.1 (linux64, Python) logging started Fri Jul 13 22:44:06 2018

Academic license - for non-commercial use only

Gurobi 8.0.1 (linux64, Python) logging started Fri Jul 13 22:44:21 2018

Academic license - for non-commercial use only

Gurobi 8.0.1 (linux64, Python) logging started Fri Jul 13 22:45:05 2018

Academic license - for non-commercial use only

Gurobi 8.0.1 (linux64, Python) logging started Fri Jul 13 22:45:40 2018

Academic license - for non-commercial use only

Gurobi 8.0.1 (linux64, Python) logging started Fri Jul 13 22:46:10 2018

Academic license - for non-commercial use only

Gurobi 8.0.1 (linux64, Python) logging started Fri Jul 13 23:02:01 2018

Academic license - for non-commercial use only

Gurobi 8.0.1 (linux64, Python) logging started Fri Jul 13 23:02:18 2018

Academic license - for non-commercial use only

Gurobi 8.0.1 (linux64, Python) logging started Fri Jul 13 23:02:42 2018

Academic license - for non-commercial use only

Gurobi 8.0.1 (linux64, Python) logging started Fri Jul 13 23:02:57 2018

Academic license - for non-commercial use only

Gurobi 8.0.1 (linux64, Python) logging started Fri Jul 13 23:18:53 2018

Academic license - for non-commercial use only

Gurobi 8.0.1 (linux64, Python) logging started Fri Jul 13 23:23:04 2018

Academic license - for non-commercial use only

Gurobi 8.0.1 (linux64, Python) logging started Sat Jul 14 13:12:39 2018

Academic license - for non-commercial use only

Gurobi 8.0.1 (linux64, Python) logging started Sat Jul 14 14:28:34 2018

Academic license - for non-commercial use only

Gurobi 8.0.1 (linux64, Python) logging started Sat Jul 14 16:03:24 2018

Academic license - for non-commercial use only

Gurobi 8.0.1 (linux64, Python) logging started Sat Jul 14 16:03:38 2018

Academic license - for non-commercial use only

Gurobi 8.0.1 (linux64, Python) logging started Sat Jul 14 16:04:01 2018

Academic license - for non-commercial use only

Gurobi 8.0.1 (linux64, Python) logging started Sat Jul 14 16:11:18 2018

Academic license - for non-commercial use only

Gurobi 8.0.1 (linux64, Python) logging started Sat Jul 14 16:21:29 2018

Academic license - for non-commercial use only

Gurobi 8.0.1 (linux64, Python) logging started Sat Jul 14 16:29:42 2018

Academic license - for non-commercial use only

Gurobi 8.0.1 (linux64, Python) logging started Sat Jul 14 16:31:25 2018

Academic license - for non-commercial use only

Gurobi 8.0.1 (linux64, Python) logging started Sat Jul 14 16:36:18 2018

Academic license - for non-commercial use only
Optimize a model with 2 rows, 3 columns and 5 nonzeros
Model has 5 quadratic objective terms
Coefficient statistics:
  Matrix range     [1e+00, 3e+00]
  Objective range  [2e+00, 2e+00]
  QObjective range [2e+00, 2e+00]
  Bounds range     [1e+00, 1e+00]
  RHS range        [1e+00, 4e+00]
Presolve time: 0.00s
Presolved: 2 rows, 3 columns, 5 nonzeros
Presolved model has 5 quadratic objective terms
Ordering time: 0.00s

Barrier statistics:
 Free vars  : 2
 AA' NZ     : 6.000e+00
 Factor NZ  : 1.000e+01
 Factor Ops : 3.000e+01 (less than 1 second per iteration)
 Threads    : 1

                  Objective                Residual
Iter       Primal          Dual         Primal    Dual     Compl     Time
   0   1.69015022e+05 -1.71012100e+05  1.50e+03 3.33e+02  1.00e+06     0s
   1   3.60255402e+04 -3.91306233e+04  2.28e+02 3.82e+01  1.20e+05     0s
   2   4.14685168e+00 -4.40925173e+03  1.80e+00 4.00e-01  1.83e+03     0s
   3   2.81937163e+00 -1.92736174e+03  1.80e-06 4.00e-07  2.41e+02     0s
   4   2.81628339e+00 -1.81287557e-01  8.60e-10 1.90e-10  3.75e-01     0s
   5   2.26977145e+00  2.06670895e+00  6.89e-12 1.53e-12  2.54e-02     0s
   6   2.11498124e+00  2.11029644e+00  2.22e-16 5.55e-16  5.86e-04     0s
   7   2.11111498e+00  2.11111030e+00  2.22e-16 2.23e-16  5.85e-07     0s
   8   2.11111111e+00  2.11111111e+00  2.22e-16 0.00e+00  5.86e-10     0s

Barrier solved model in 8 iterations and 0.01 seconds
Optimal objective 2.11111111e+00

Optimize a model with 2 rows, 3 columns and 5 nonzeros
Model has 5 quadratic objective terms
Variable types: 0 continuous, 3 integer (0 binary)
Coefficient statistics:
  Matrix range     [1e+00, 3e+00]
  Objective range  [2e+00, 2e+00]
  QObjective range [2e+00, 2e+00]
  Bounds range     [1e+00, 1e+00]
  RHS range        [1e+00, 4e+00]
Found heuristic solution: objective 7.0000000
Presolve removed 1 rows and 1 columns
Presolve time: 0.00s
Presolved: 2 rows, 3 columns, 5 nonzeros
Variable types: 0 continuous, 3 integer (3 binary)

Root relaxation: objective 3.000000e+00, 1 iterations, 0.00 seconds

    Nodes    |    Current Node    |     Objective Bounds      |     Work
 Expl Unexpl |  Obj  Depth IntInf | Incumbent    BestBd   Gap | It/Node Time

*    0     0               0       3.0000000    3.00000  0.00%     -    0s

Explored 0 nodes (1 simplex iterations) in 0.01 seconds
Thread count was 8 (of 8 available processors)

Solution count 2: 3 7 

Optimal solution found (tolerance 1.00e-04)
Best objective 3.000000000000e+00, best bound 3.000000000000e+00, gap 0.0000%

Gurobi 8.0.1 (linux64, Python) logging started Sat Jul 14 16:42:45 2018

Academic license - for non-commercial use only

Gurobi 8.0.1 (linux64, Python) logging started Sat Jul 14 17:33:51 2018

Academic license - for non-commercial use only

Gurobi 8.0.1 (linux64, Python) logging started Sat Jul 14 17:34:19 2018

Academic license - for non-commercial use only

Gurobi 8.0.1 (linux64, Python) logging started Sat Jul 14 18:51:08 2018

Academic license - for non-commercial use only

Gurobi 8.0.1 (linux64, Python) logging started Sat Jul 14 19:22:49 2018

Academic license - for non-commercial use only

Gurobi 8.0.1 (linux64, Python) logging started Sat Jul 14 19:30:46 2018

Academic license - for non-commercial use only

Gurobi 8.0.1 (linux64, Python) logging started Mon Jul 16 15:22:39 2018

Academic license - for non-commercial use only

Gurobi 8.0.1 (linux64, Python) logging started Mon Jul 16 17:04:42 2018

Academic license - for non-commercial use only
Optimize a model with 2 rows, 3 columns and 5 nonzeros
Model has 5 quadratic objective terms
Coefficient statistics:
  Matrix range     [1e+00, 3e+00]
  Objective range  [2e+00, 2e+00]
  QObjective range [2e+00, 2e+00]
  Bounds range     [1e+00, 1e+00]
  RHS range        [1e+00, 4e+00]
Presolve time: 0.19s
Presolved: 2 rows, 3 columns, 5 nonzeros
Presolved model has 5 quadratic objective terms
Ordering time: 0.00s

Barrier statistics:
 Free vars  : 2
 AA' NZ     : 6.000e+00
 Factor NZ  : 1.000e+01
 Factor Ops : 3.000e+01 (less than 1 second per iteration)
 Threads    : 1

                  Objective                Residual
Iter       Primal          Dual         Primal    Dual     Compl     Time
   0   1.69015022e+05 -1.71012100e+05  1.50e+03 3.33e+02  1.00e+06     0s
   1   3.60255402e+04 -3.91306233e+04  2.28e+02 3.82e+01  1.20e+05     0s
   2   4.14685168e+00 -4.40925173e+03  1.80e+00 4.00e-01  1.83e+03     0s
   3   2.81937163e+00 -1.92736174e+03  1.80e-06 4.00e-07  2.41e+02     0s
   4   2.81628339e+00 -1.81287557e-01  8.60e-10 1.90e-10  3.75e-01     0s
   5   2.26977145e+00  2.06670895e+00  6.89e-12 1.53e-12  2.54e-02     0s
   6   2.11498124e+00  2.11029644e+00  2.22e-16 5.55e-16  5.86e-04     0s
   7   2.11111498e+00  2.11111030e+00  2.22e-16 2.23e-16  5.85e-07     0s
   8   2.11111111e+00  2.11111111e+00  2.22e-16 0.00e+00  5.86e-10     0s

Barrier solved model in 8 iterations and 0.22 seconds
Optimal objective 2.11111111e+00

Optimize a model with 2 rows, 3 columns and 5 nonzeros
Model has 5 quadratic objective terms
Variable types: 0 continuous, 3 integer (0 binary)
Coefficient statistics:
  Matrix range     [1e+00, 3e+00]
  Objective range  [2e+00, 2e+00]
  QObjective range [2e+00, 2e+00]
  Bounds range     [1e+00, 1e+00]
  RHS range        [1e+00, 4e+00]
Found heuristic solution: objective 7.0000000
Presolve removed 1 rows and 1 columns
Presolve time: 0.04s
Presolved: 2 rows, 3 columns, 5 nonzeros
Variable types: 0 continuous, 3 integer (3 binary)

Root relaxation: objective 3.000000e+00, 1 iterations, 0.01 seconds

    Nodes    |    Current Node    |     Objective Bounds      |     Work
 Expl Unexpl |  Obj  Depth IntInf | Incumbent    BestBd   Gap | It/Node Time

*    0     0               0       3.0000000    3.00000  0.00%     -    0s

Explored 0 nodes (1 simplex iterations) in 0.14 seconds
Thread count was 8 (of 8 available processors)

Solution count 2: 3 7 

Optimal solution found (tolerance 1.00e-04)
Best objective 3.000000000000e+00, best bound 3.000000000000e+00, gap 0.0000%

Gurobi 8.0.1 (linux64, Python) logging started Mon Jul 16 17:11:56 2018

Academic license - for non-commercial use only
Optimize a model with 0 rows, 5 columns and 0 nonzeros
Model has 3 quadratic objective terms
Coefficient statistics:
  Matrix range     [0e+00, 0e+00]
  Objective range  [4e+00, 6e+00]
  QObjective range [3e+00, 8e+00]
  Bounds range     [0e+00, 0e+00]
  RHS range        [0e+00, 0e+00]
Presolve removed 0 rows and 3 columns
Presolve time: 0.00s
Presolved: 0 rows, 2 columns, 0 nonzeros
Presolved model has 3 quadratic objective terms
Ordering time: 0.00s

Barrier statistics:
 Free vars  : 1
 AA' NZ     : 0.000e+00
 Factor NZ  : 1.000e+00
 Factor Ops : 1.000e+00 (less than 1 second per iteration)
 Threads    : 1

                  Objective                Residual
Iter       Primal          Dual         Primal    Dual     Compl     Time
   0   2.65579687e+05 -2.78773735e+05  2.38e+03 5.56e+00  9.93e+05     0s
   1   4.69306707e+04 -4.76371147e+04  2.38e-03 0.00e+00  4.73e+04     0s
   2   6.79357575e+03 -7.06151762e+03  2.38e-09 1.42e-14  6.93e+03     0s
   3   9.64692471e+02 -1.06483312e+03  7.11e-15 2.84e-14  1.01e+03     0s
   4   1.30497257e+02 -1.66450047e+02  8.88e-16 3.55e-15  1.48e+02     0s
   5   1.58197696e+01 -2.72862451e+01  4.44e-16 4.55e-15  2.16e+01     0s
   6   1.81600522e+00 -4.11396267e+00  8.88e-16 0.00e+00  2.96e+00     0s
   7   6.53615544e-01  8.37303906e-02  0.00e+00 0.00e+00  2.85e-01     0s
   8   6.21310867e-01  6.01816994e-01  1.11e-16 4.02e-16  9.75e-03     0s
   9   6.10887722e-01  6.07930335e-01  0.00e+00 0.00e+00  1.48e-03     0s
  10   6.09000861e-01  6.08762636e-01  1.11e-16 3.08e-16  1.19e-04     0s
  11   6.08781996e-01  6.08780174e-01  1.11e-16 0.00e+00  9.11e-07     0s
  12   6.08780205e-01  6.08780204e-01  0.00e+00 2.96e-16  9.10e-10     0s

Barrier solved model in 12 iterations and 0.01 seconds
Optimal objective 6.08780205e-01


Gurobi 8.0.1 (linux64, Python) logging started Mon Jul 16 17:22:55 2018

Academic license - for non-commercial use only

Gurobi 8.0.1 (linux64, Python) logging started Mon Jul 16 23:01:27 2018

Academic license - for non-commercial use only
